/*********************************************
 * OPL 12.6.0.0 Data
 * Author: Adrian Rodriguez Bazaga, Pau Rodriguez Esmerats
 * Creation Date: 06/12/2017 at 23:03:04
 *********************************************/

nNurses=223;
maxConsec=2;
maxPresence=7;
maxHours=5;
minHours=1;
hours=24;
demand= [35 29 45 50 29 45 50 34 30 22 4 10 5 11 7 6 4 4 3 1 38 72 36 54  ];
